
n_res = 8;
rcap = [50, 55, 56, 58, 1494, 1496, 1421, 1319];
rtype = [1, 1, 1, 1, 2, 2, 2, 2];
n_tasks = 100;
modes =  [{1, 2, 3}, {4, 5, 6}, {7, 8, 9}, {10, 11, 12}, {13, 14, 15}, {16, 17, 18}, {19, 20, 21}, {22, 23, 24}, {25, 26, 27}, {28, 29, 30}, {31, 32, 33}, {34, 35, 36}, {37, 38, 39}, {40, 41, 42}, {43, 44, 45}, {46, 47, 48}, {49, 50, 51}, {52, 53, 54}, {55, 56, 57}, {58, 59, 60}, {61, 62, 63}, {64, 65, 66}, {67, 68, 69}, {70, 71, 72}, {73, 74, 75}, {76, 77, 78}, {79, 80, 81}, {82, 83, 84}, {85, 86, 87}, {88, 89, 90}, {91, 92, 93}, {94, 95, 96}, {97, 98, 99}, {100, 101, 102}, {103, 104, 105}, {106, 107, 108}, {109, 110, 111}, {112, 113, 114}, {115, 116, 117}, {118, 119, 120}, {121, 122, 123}, {124, 125, 126}, {127, 128, 129}, {130, 131, 132}, {133, 134, 135}, {136, 137, 138}, {139, 140, 141}, {142, 143, 144}, {145, 146, 147}, {148, 149, 150}, {151, 152, 153}, {154, 155, 156}, {157, 158, 159}, {160, 161, 162}, {163, 164, 165}, {166, 167, 168}, {169, 170, 171}, {172, 173, 174}, {175, 176, 177}, {178, 179, 180}, {181, 182, 183}, {184, 185, 186}, {187, 188, 189}, {190, 191, 192}, {193, 194, 195}, {196, 197, 198}, {199, 200, 201}, {202, 203, 204}, {205, 206, 207}, {208, 209, 210}, {211, 212, 213}, {214, 215, 216}, {217, 218, 219}, {220, 221, 222}, {223, 224, 225}, {226, 227, 228}, {229, 230, 231}, {232, 233, 234}, {235, 236, 237}, {238, 239, 240}, {241, 242, 243}, {244, 245, 246}, {247, 248, 249}, {250, 251, 252}, {253, 254, 255}, {256, 257, 258}, {259, 260, 261}, {262, 263, 264}, {265, 266, 267}, {268, 269, 270}, {271, 272, 273}, {274, 275, 276}, {277, 278, 279}, {280, 281, 282}, {283, 284, 285}, {286, 287, 288}, {289, 290, 291}, {292, 293, 294}, {295, 296, 297}, {298, 299, 300}];
succ =  [{99, 96, 93, 92, 91, 90, 68, 67, 66, 65, 62, 61, 57, 56, 54, 51, 49, 38, 35, 28}, {99, 65, 62, 61, 49, 46, 44, 42, 41, 36, 35, 20}, {100, 99, 97, 95, 91, 86, 85, 68, 65, 62, 61, 56, 55, 48, 45, 44, 43, 42, 38}, {100, 99, 95, 91, 88, 85, 84, 82, 66, 62, 60, 58, 57, 55, 53, 38, 24}, {91, 89, 86, 85, 81, 68, 66, 64, 63, 62, 60, 57, 49, 46, 40, 30}, {98, 97, 92, 89, 87, 80, 64, 58, 51, 30, 21}, {100, 99, 98, 96, 92, 91, 89, 86, 85, 82, 78, 75, 65, 61, 57, 56, 52, 50, 49, 46, 44}, {93, 91, 87, 86, 82, 78, 68, 64, 62, 61, 59, 58, 57, 56, 55, 54, 49, 44, 35}, {97, 95, 93, 92, 91, 90, 87, 86, 85, 82, 75, 67, 65, 61, 56, 55, 54, 45, 44}, {96, 95, 89, 88, 85, 81, 79, 67, 64, 63, 61, 60, 59, 56, 54, 51, 42}, {100, 99, 96, 93, 92, 91, 88, 85, 82, 79, 73, 66, 62, 56, 54, 33}, {96, 92, 90, 88, 86, 85, 65, 64, 55, 48, 44, 38}, {92, 89, 88, 87, 86, 85, 84, 79, 78, 75, 68, 66, 65, 64, 61, 60, 56, 54, 50, 49}, {97, 96, 93, 90, 89, 88, 87, 85, 82, 78, 75, 73, 65, 62, 55, 54, 49, 44}, {97, 96, 95, 91, 89, 88, 87, 85, 81, 79, 72, 65, 64, 60, 51, 40}, {95, 94, 92, 91, 85, 68, 67, 65, 62, 55, 52, 51, 49}, {99, 98, 96, 95, 93, 92, 90, 85, 84, 79, 77, 75, 74, 67, 66, 61, 45}, {98, 96, 94, 91, 88, 86, 84, 83, 82, 81, 78, 76, 75, 74, 65, 64, 63, 57, 54}, {97, 93, 91, 90, 83, 80, 79, 77, 75, 72, 64, 57, 55, 45}, {96, 91, 90, 89, 87, 84, 80, 78, 76, 75, 70, 67, 66, 64, 60, 55, 54}, {93, 91, 88, 85, 83, 82, 78, 75, 73, 67, 62, 59, 55, 44}, {98, 92, 87, 81, 73, 71, 63, 59, 52, 51, 49}, {96, 95, 92, 91, 89, 86, 85, 83, 82, 81, 78, 76, 75, 74, 64, 63, 59, 54}, {98, 94, 93, 92, 89, 86, 78, 75, 74, 73, 63, 61, 59, 54, 52}, {96, 91, 89, 87, 86, 79, 77, 76, 75, 73, 72, 70, 66, 61, 60, 55}, {96, 92, 88, 86, 82, 81, 80, 78, 76, 75, 73, 63, 46}, {96, 94, 87, 86, 85, 82, 79, 77, 76, 75, 73, 72, 65, 59, 55}, {88, 87, 85, 84, 82, 80, 78, 77, 76, 75, 71, 64, 58, 55}, {99, 95, 93, 86, 82, 80, 77, 75, 74, 72, 71, 45}, {95, 94, 93, 90, 88, 84, 79, 78, 77, 76, 75, 74, 73, 72, 61, 59}, {88, 86, 85, 84, 82, 79, 78, 75, 73, 71, 59, 49}, {96, 91, 87, 85, 83, 81, 80, 79, 78, 62, 60, 54}, {90, 84, 80, 78, 76, 75, 67, 61, 59, 55}, {87, 84, 82, 81, 75, 71, 63, 62, 60, 59, 58}, {98, 95, 94, 89, 88, 85, 84, 81, 80, 77, 76, 75, 74, 73, 72, 71}, {95, 87, 86, 85, 84, 80, 79, 78, 77, 73, 72, 71, 70, 69}, {90, 87, 86, 84, 78, 77, 75, 74, 73, 72, 71, 59}, {94, 89, 87, 83, 78, 75, 74, 72, 63, 59}, {94, 93, 87, 85, 75, 73, 70, 54}, {92, 84, 82, 76, 75, 74, 73, 71, 59}, {82, 81, 76, 75, 72, 71, 64, 59}, {94, 93, 84, 82, 80, 74, 72, 70, 66}, {92, 90, 82, 75, 72, 64, 59}, {84, 79, 76, 72, 71, 63, 60}, {89, 88, 78, 76, 73, 63, 59}, {97, 87, 79, 70, 54}, {95, 94, 83, 75, 74, 71, 70, 69}, {82, 78, 77, 72, 71, 63}, {83, 80, 77, 76, 74, 72}, {90, 81, 72, 59}, {86, 82, 78, 75, 69}, {90, 80, 79, 72, 69}, {73, 72, 71, 70, 69}, {77, 72, 71, 69}, {81, 74, 63}, {76, 70, 69}, {73, 71, 70}, {79, 73, 70}, {70, 69}, {74, 69}, {83, 71}, {76, 70}, {69}, {73}, {80}, {71}, {72}, {71}, {}, {}, {}, {}, {}, {}, {}, {}, {}, {}, {}, {}, {}, {}, {}, {}, {}, {}, {}, {}, {}, {}, {}, {}, {}, {}, {}, {}, {}, {}, {}, {}];
n_opt = 300;
dur = [9, 11, 16, 6, 7, 25, 14, 27, 28, 4, 22, 29, 2, 5, 10, 9, 10, 21, 3, 23, 30, 20, 24, 27, 4, 18, 26, 2, 9, 12, 4, 8, 9, 16, 17, 27, 3, 7, 17, 8, 9, 22, 3, 17, 26, 4, 5, 26, 8, 21, 30, 11, 25, 30, 17, 26, 30, 2, 13, 16, 3, 18, 26, 1, 15, 25, 9, 11, 25, 4, 22, 30, 7, 13, 20, 7, 16, 21, 3, 19, 28, 11, 19, 28, 5, 9, 17, 4, 7, 24, 16, 18, 23, 26, 27, 30, 2, 7, 29, 12, 13, 19, 4, 24, 25, 1, 2, 26, 4, 12, 22, 5, 16, 21, 8, 27, 29, 1, 11, 22, 17, 27, 30, 12, 13, 25, 14, 22, 23, 3, 17, 29, 12, 19, 28, 21, 23, 25, 17, 22, 30, 16, 21, 25, 2, 13, 18, 2, 7, 14, 1, 4, 7, 3, 13, 24, 15, 29, 30, 11, 13, 14, 14, 20, 28, 21, 28, 29, 4, 7, 8, 5, 10, 22, 2, 23, 30, 17, 25, 29, 14, 22, 28, 5, 9, 20, 22, 24, 30, 9, 24, 29, 4, 6, 28, 4, 7, 20, 1, 10, 30, 10, 16, 28, 10, 11, 19, 9, 18, 27, 4, 23, 26, 3, 9, 15, 9, 15, 21, 16, 17, 27, 10, 28, 29, 3, 11, 17, 8, 11, 12, 15, 19, 26, 7, 15, 28, 7, 25, 28, 22, 23, 25, 1, 12, 26, 1, 5, 26, 3, 4, 28, 8, 10, 13, 14, 16, 26, 15, 17, 26, 5, 23, 24, 2, 16, 24, 23, 27, 29, 13, 15, 29, 3, 6, 22, 4, 5, 17, 2, 4, 5, 1, 4, 30, 24, 27, 28, 7, 14, 17, 17, 21, 27, 6, 22, 23, 8, 11, 12];
rreq = [|3, 2, 1, 2, 2, 2, 4, 3, 2, 3, 2, 2, 4, 4, 3, 4, 3, 3, 2, 1, 1, 5, 4, 4, 2, 2, 2, 4, 3, 3, 4, 2, 2, 1, 1, 1, 4, 3, 2, 3, 3, 3, 5, 2, 1, 3, 2, 1, 3, 3, 2, 2, 2, 1, 4, 3, 2, 4, 2, 1, 5, 4, 4, 2, 1, 1, 3, 2, 2, 4, 2, 2, 1, 1, 1, 4, 4, 4, 4, 2, 2, 4, 3, 2, 3, 3, 2, 3, 2, 2, 2, 2, 2, 3, 3, 2, 2, 1, 1, 2, 2, 2, 3, 2, 1, 5, 5, 5, 2, 2, 2, 4, 3, 3, 3, 2, 1, 1, 1, 1, 3, 3, 2, 3, 3, 3, 4, 3, 3, 3, 2, 1, 2, 2, 2, 5, 4, 4, 4, 2, 1, 3, 3, 2, 2, 1, 1, 3, 2, 2, 3, 3, 3, 5, 3, 2, 5, 3, 3, 1, 1, 1, 1, 1, 1, 2, 2, 2, 3, 2, 1, 4, 3, 3, 3, 2, 2, 4, 3, 3, 4, 3, 3, 4, 4, 3, 5, 3, 2, 2, 2, 2, 3, 2, 1, 4, 3, 2, 4, 4, 4, 3, 3, 3, 1, 1, 1, 5, 5, 5, 4, 2, 2, 2, 2, 2, 2, 1, 1, 4, 3, 2, 1, 1, 1, 4, 3, 2, 4, 2, 2, 3, 3, 3, 3, 3, 3, 2, 2, 2, 1, 1, 1, 5, 5, 5, 4, 2, 2, 2, 2, 2, 5, 3, 2, 5, 5, 5, 3, 3, 1, 3, 3, 3, 3, 2, 2, 5, 3, 3, 2, 1, 1, 4, 2, 2, 2, 2, 2, 5, 5, 5, 4, 2, 2, 5, 4, 4, 3, 3, 2, 1, 1, 1, 4, 4, 3, 4, 4, 4
 |2, 1, 1, 4, 3, 3, 3, 3, 3, 3, 3, 1, 4, 3, 2, 3, 3, 1, 4, 3, 2, 3, 3, 3, 3, 1, 1, 5, 5, 5, 5, 3, 3, 5, 4, 3, 2, 2, 1, 2, 2, 1, 3, 2, 1, 5, 3, 3, 3, 2, 2, 2, 2, 2, 3, 2, 2, 4, 3, 3, 5, 4, 4, 2, 2, 2, 4, 2, 2, 4, 3, 3, 4, 2, 1, 1, 1, 1, 5, 3, 2, 3, 2, 2, 3, 3, 1, 3, 3, 3, 1, 1, 1, 3, 3, 3, 2, 2, 1, 5, 4, 3, 3, 2, 2, 3, 1, 1, 4, 3, 1, 4, 2, 2, 4, 3, 2, 5, 4, 3, 3, 2, 2, 3, 3, 2, 1, 1, 1, 3, 1, 1, 2, 1, 1, 2, 2, 1, 5, 4, 3, 4, 3, 3, 3, 2, 2, 3, 3, 2, 5, 4, 4, 5, 3, 3, 1, 1, 1, 2, 2, 2, 2, 2, 2, 2, 2, 2, 3, 3, 3, 5, 3, 1, 4, 4, 3, 1, 1, 1, 3, 3, 3, 3, 3, 2, 4, 3, 2, 2, 2, 1, 2, 2, 2, 5, 4, 2, 2, 2, 2, 1, 1, 1, 5, 4, 3, 2, 2, 2, 2, 2, 2, 3, 3, 2, 3, 2, 1, 5, 3, 3, 3, 2, 1, 1, 1, 1, 2, 2, 2, 1, 1, 1, 5, 5, 5, 5, 4, 4, 4, 3, 2, 2, 2, 2, 5, 4, 3, 4, 3, 1, 1, 1, 1, 5, 5, 5, 3, 3, 3, 4, 3, 3, 5, 4, 4, 3, 2, 2, 3, 2, 2, 4, 4, 4, 5, 3, 3, 5, 2, 2, 3, 3, 1, 4, 4, 3, 2, 2, 2, 5, 3, 3, 3, 2, 2, 4, 3, 3
 |4, 2, 2, 3, 1, 1, 5, 3, 1, 5, 5, 5, 4, 3, 3, 5, 3, 2, 2, 1, 1, 2, 2, 2, 3, 3, 3, 2, 1, 1, 4, 4, 4, 4, 4, 3, 3, 3, 3, 3, 3, 1, 5, 4, 4, 5, 4, 3, 3, 3, 3, 4, 3, 3, 4, 3, 3, 5, 5, 5, 2, 1, 1, 5, 4, 3, 3, 2, 1, 4, 3, 3, 3, 3, 1, 5, 5, 5, 4, 4, 4, 3, 2, 1, 2, 2, 2, 4, 2, 1, 2, 1, 1, 3, 3, 2, 5, 4, 2, 2, 2, 2, 3, 1, 1, 2, 2, 2, 4, 2, 2, 5, 5, 5, 3, 2, 2, 1, 1, 1, 3, 3, 1, 2, 2, 2, 4, 3, 1, 2, 1, 1, 2, 1, 1, 4, 3, 1, 2, 1, 1, 4, 2, 1, 3, 2, 2, 1, 1, 1, 3, 3, 3, 3, 2, 1, 2, 1, 1, 4, 3, 3, 4, 4, 3, 3, 1, 1, 3, 3, 3, 4, 4, 4, 4, 3, 3, 3, 2, 1, 1, 1, 1, 3, 2, 2, 3, 1, 1, 3, 1, 1, 3, 3, 3, 5, 4, 4, 1, 1, 1, 1, 1, 1, 5, 3, 3, 2, 1, 1, 1, 1, 1, 5, 3, 3, 5, 5, 5, 3, 1, 1, 4, 4, 4, 5, 4, 4, 3, 2, 1, 1, 1, 1, 4, 2, 2, 2, 1, 1, 3, 2, 2, 4, 3, 3, 2, 2, 2, 4, 2, 2, 5, 3, 1, 3, 3, 2, 4, 3, 2, 2, 1, 1, 5, 3, 2, 3, 3, 1, 4, 3, 2, 2, 2, 2, 4, 3, 2, 5, 3, 3, 3, 3, 1, 2, 2, 2, 3, 2, 2, 3, 2, 2, 5, 4, 3, 2, 2, 1
 |4, 4, 4, 3, 2, 1, 5, 4, 2, 3, 2, 2, 5, 5, 5, 4, 3, 1, 4, 3, 3, 4, 2, 2, 3, 3, 3, 1, 1, 1, 3, 1, 1, 2, 2, 2, 2, 1, 1, 5, 3, 3, 3, 3, 3, 5, 4, 3, 3, 3, 3, 4, 3, 3, 3, 3, 3, 1, 1, 1, 5, 4, 3, 4, 3, 2, 5, 3, 3, 5, 2, 1, 5, 4, 4, 5, 4, 3, 4, 3, 2, 2, 2, 1, 2, 1, 1, 3, 3, 3, 5, 5, 5, 2, 2, 2, 3, 3, 3, 5, 4, 3, 2, 2, 2, 4, 2, 2, 4, 4, 4, 4, 4, 4, 2, 2, 2, 2, 2, 2, 4, 3, 2, 4, 4, 2, 1, 1, 1, 4, 4, 4, 3, 2, 1, 3, 2, 1, 3, 3, 3, 4, 3, 2, 3, 3, 2, 3, 2, 1, 5, 5, 5, 3, 3, 3, 2, 1, 1, 4, 4, 4, 4, 3, 2, 1, 1, 1, 5, 3, 2, 2, 1, 1, 4, 3, 3, 5, 3, 3, 5, 3, 3, 3, 3, 2, 4, 2, 1, 4, 2, 2, 2, 1, 1, 4, 3, 2, 4, 4, 4, 4, 2, 2, 2, 2, 2, 1, 1, 1, 2, 2, 1, 4, 4, 4, 3, 2, 2, 2, 2, 2, 3, 2, 2, 3, 3, 2, 4, 3, 2, 2, 2, 2, 3, 3, 2, 4, 4, 4, 2, 1, 1, 4, 3, 2, 3, 3, 2, 1, 1, 1, 3, 3, 3, 3, 2, 2, 4, 4, 3, 2, 1, 1, 4, 4, 3, 4, 3, 3, 2, 2, 1, 5, 3, 3, 3, 3, 3, 4, 3, 3, 3, 2, 2, 1, 1, 1, 3, 2, 1, 5, 5, 5, 2, 1, 1, 4, 3, 3
 |19, 18, 14, 20, 14, 5, 26, 19, 4, 24, 22, 19, 23, 17, 5, 21, 21, 21, 22, 19, 18, 21, 18, 16, 14, 9, 7, 12, 12, 12, 12, 12, 11, 22, 14, 13, 27, 26, 22, 26, 25, 20, 18, 17, 16, 18, 16, 10, 11, 10, 9, 19, 13, 5, 18, 16, 15, 21, 16, 7, 17, 17, 15, 7, 5, 2, 24, 22, 20, 25, 18, 7, 15, 11, 8, 29, 27, 27, 23, 19, 14, 2, 1, 1, 25, 22, 21, 25, 16, 6, 21, 20, 19, 21, 18, 15, 20, 20, 19, 23, 20, 11, 22, 14, 4, 23, 21, 14, 28, 25, 24, 24, 14, 10, 28, 28, 28, 27, 26, 24, 24, 23, 21, 16, 9, 3, 11, 11, 8, 20, 15, 7, 27, 10, 3, 22, 12, 11, 22, 18, 16, 27, 26, 26, 11, 4, 3, 25, 21, 17, 19, 18, 15, 11, 10, 10, 16, 13, 12, 20, 17, 13, 15, 11, 10, 23, 19, 13, 21, 17, 14, 8, 4, 4, 22, 14, 6, 27, 20, 17, 23, 19, 19, 19, 11, 5, 29, 28, 28, 26, 23, 22, 25, 22, 21, 24, 23, 22, 13, 11, 6, 27, 26, 26, 27, 18, 13, 15, 11, 7, 24, 23, 21, 17, 11, 8, 25, 22, 19, 20, 15, 12, 28, 25, 24, 26, 23, 19, 11, 10, 6, 14, 10, 8, 9, 8, 6, 17, 17, 17, 30, 20, 17, 13, 6, 4, 17, 16, 16, 7, 6, 3, 20, 17, 6, 20, 15, 15, 27, 23, 14, 12, 8, 8, 4, 4, 4, 19, 19, 18, 24, 19, 17, 25, 19, 13, 21, 21, 21, 25, 22, 20, 21, 20, 18, 9, 7, 3, 5, 4, 3, 20, 18, 12, 27, 24, 23, 26, 18, 15
 |24, 15, 14, 14, 14, 13, 16, 10, 10, 27, 13, 11, 22, 18, 14, 6, 5, 3, 16, 15, 15, 24, 21, 19, 13, 7, 4, 15, 14, 13, 19, 12, 9, 26, 24, 18, 19, 12, 9, 8, 7, 7, 18, 17, 17, 16, 9, 3, 23, 21, 18, 21, 19, 18, 25, 22, 21, 21, 19, 17, 26, 22, 21, 7, 4, 1, 26, 17, 13, 24, 21, 18, 26, 21, 19, 19, 14, 8, 11, 10, 4, 23, 18, 10, 18, 15, 3, 27, 22, 20, 18, 18, 13, 9, 7, 2, 28, 26, 26, 19, 18, 18, 10, 10, 10, 24, 15, 13, 25, 20, 15, 25, 22, 20, 18, 17, 17, 13, 12, 10, 17, 13, 12, 14, 12, 10, 24, 22, 19, 8, 8, 8, 19, 18, 15, 18, 12, 11, 21, 16, 15, 25, 22, 20, 21, 17, 10, 23, 16, 5, 25, 24, 24, 12, 12, 9, 18, 17, 17, 21, 21, 21, 17, 16, 9, 14, 11, 9, 10, 10, 8, 30, 30, 30, 27, 23, 21, 11, 7, 5, 19, 10, 10, 14, 13, 12, 19, 10, 8, 11, 11, 11, 27, 23, 18, 18, 15, 14, 28, 25, 21, 9, 6, 3, 12, 9, 6, 21, 19, 18, 20, 15, 8, 18, 16, 15, 16, 12, 8, 28, 26, 22, 23, 18, 14, 27, 17, 6, 16, 14, 10, 20, 17, 15, 21, 19, 19, 25, 17, 12, 24, 21, 21, 8, 8, 3, 20, 20, 18, 20, 15, 9, 23, 14, 8, 11, 8, 6, 30, 30, 30, 25, 22, 21, 30, 29, 29, 13, 11, 7, 26, 24, 20, 27, 13, 7, 9, 6, 1, 27, 25, 22, 21, 20, 20, 25, 24, 22, 18, 16, 6, 27, 20, 15, 27, 27, 24, 19, 15, 9
 |27, 27, 26, 27, 26, 25, 15, 10, 5, 18, 18, 17, 17, 8, 6, 15, 14, 14, 18, 17, 14, 19, 14, 9, 22, 19, 18, 12, 12, 11, 1, 1, 1, 11, 10, 4, 27, 26, 25, 23, 22, 22, 25, 18, 15, 24, 15, 8, 25, 25, 25, 22, 21, 21, 25, 23, 21, 24, 24, 17, 19, 10, 2, 28, 24, 23, 10, 8, 8, 14, 9, 6, 18, 17, 7, 18, 16, 13, 16, 16, 14, 12, 8, 5, 12, 11, 9, 25, 24, 22, 17, 12, 2, 22, 22, 22, 25, 22, 10, 22, 19, 12, 6, 6, 6, 20, 18, 17, 5, 5, 5, 29, 26, 24, 5, 3, 3, 19, 17, 15, 13, 13, 13, 28, 26, 25, 5, 4, 4, 9, 8, 3, 28, 28, 28, 26, 25, 23, 27, 26, 26, 8, 6, 6, 14, 12, 12, 23, 22, 22, 18, 17, 17, 22, 20, 18, 26, 21, 19, 25, 24, 23, 19, 15, 8, 21, 16, 8, 15, 13, 6, 19, 16, 14, 10, 7, 6, 27, 12, 3, 22, 11, 6, 24, 18, 9, 24, 14, 10, 25, 24, 22, 29, 26, 24, 14, 12, 7, 12, 9, 8, 7, 7, 7, 28, 26, 22, 12, 10, 8, 26, 14, 10, 18, 16, 8, 17, 17, 16, 24, 22, 15, 6, 5, 5, 18, 8, 5, 24, 19, 15, 18, 18, 17, 8, 4, 2, 16, 8, 4, 25, 24, 19, 20, 17, 17, 8, 6, 6, 24, 17, 14, 16, 16, 11, 10, 6, 4, 12, 9, 9, 23, 18, 17, 9, 6, 5, 22, 18, 14, 24, 18, 12, 21, 20, 20, 21, 13, 11, 23, 18, 16, 20, 15, 6, 14, 11, 8, 14, 11, 7, 21, 20, 12, 17, 15, 13, 25, 23, 20
 |19, 16, 13, 27, 17, 14, 23, 15, 11, 29, 11, 1, 14, 13, 13, 29, 24, 23, 25, 25, 24, 13, 10, 6, 23, 17, 9, 21, 19, 19, 26, 13, 3, 8, 6, 3, 30, 29, 29, 29, 22, 18, 7, 7, 5, 25, 24, 24, 9, 8, 7, 8, 8, 8, 20, 18, 11, 28, 20, 15, 22, 10, 4, 17, 16, 14, 15, 14, 10, 4, 3, 3, 25, 20, 12, 19, 12, 12, 6, 5, 3, 29, 27, 24, 9, 6, 5, 6, 5, 5, 20, 13, 7, 21, 18, 16, 7, 7, 6, 28, 18, 6, 12, 11, 8, 28, 17, 11, 11, 11, 10, 22, 18, 14, 26, 18, 11, 16, 15, 13, 8, 7, 4, 28, 23, 22, 21, 13, 7, 27, 23, 20, 24, 24, 24, 27, 25, 25, 1, 1, 1, 21, 19, 17, 14, 13, 12, 16, 16, 15, 27, 27, 26, 13, 12, 10, 8, 7, 6, 1, 1, 1, 9, 6, 4, 6, 5, 5, 12, 7, 3, 16, 12, 12, 6, 5, 4, 27, 22, 12, 24, 24, 22, 14, 11, 10, 27, 26, 23, 27, 22, 21, 22, 10, 5, 9, 9, 9, 20, 14, 9, 30, 22, 20, 14, 13, 13, 26, 22, 19, 26, 23, 15, 12, 12, 11, 13, 11, 10, 9, 4, 4, 7, 7, 6, 25, 24, 24, 13, 12, 10, 22, 22, 22, 22, 19, 7, 22, 17, 9, 18, 14, 12, 3, 2, 1, 12, 8, 7, 18, 11, 11, 8, 7, 6, 18, 16, 15, 26, 21, 20, 11, 8, 5, 22, 18, 13, 19, 19, 18, 10, 10, 8, 26, 25, 24, 21, 21, 20, 9, 6, 6, 20, 18, 18, 13, 8, 2, 9, 8, 7, 16, 10, 7, 17, 11, 8, 18, 16, 14|];